









































































































65 59 43 51 18 16 32 63 
46 4 25 50 27 2 44 70 42 
17 52 1 58 57 7 73 30 72 
64 71 38 56 29 13 11 22 
60 75 5 67 33 54 19 8 
10 0 76 34 23 69 35 24 
36 15 48 6 39 12 28 61 31 
45 21 37 68 74 66 62 47 9 
14 49 3 26 20 53 55 41 40 
